0 820 
1 808 
2 806 
3 798 
4 796 
5 796 
6 794 
7 788 
8 780 
9 768 
10 766 
11 762 
12 746 
13 742 
14 738 
15 734 
16 730 
17 724 
18 720 
19 708 
20 700 
21 700 
22 694 
23 686 
24 682 
25 678 
26 674 
27 672 
28 664 
29 656 
30 654 
31 648 
32 644 
33 640 
34 636 
35 632 
36 610 
37 586 
38 586 

